
  17    4
  10   10   10   10

   0   0   0   0   0   7 2 3 4 5 7 10 11 
   9  10  10  10  10   4 14 12 9 8 
   1  10  10  10  10   3 14 9 6 
   8  10  10  10  10   3 14 12 8 
   9  10  10  10  10   2 14 6 
   3  10  10  10  10   2 13 12 
   1  10  10  10  10   2 13 12 
   3  10  10  10  10   1 13 
   8  10  10  10  10   1 13 
   4  10  10  10  10   1 12 
   8  10  10  10  10   1 12 
   1  10  10  10  10   2 16 15 
  10  10  10  10  10   2 16 15 
  10  10  10  10  10   2 16 15 
   2  10  10  10  10   1 17
   4  10  10  10  10   1 17
   0   0   0   0   0   0 
